c turning on binary mode checking
c parsing input formula with 259840 variables and 1039934 clauses
c finished parsing, read 3280492 bytes from proof file
c detected empty clause; start verification via backward checking
c 10846 of 1039934 clauses in core                            
c 3716 of 120991 lemmas in core using 186071 resolution steps
c 0 RAT lemmas in core; 1378 redundant literals in core lemmas
s VERIFIED
c verification time: 1.794 seconds
